% Número total de personas
n = 5;

% Número de opiniones posibles
m = 5;

% Distribución inicial de personas por opinión
p = [0, 1, 0, 1, 3];

% Valores de las opiniones
v = [0.436, 0.462, 0.566, 0.756, 0.819];

% Costos extras al mover a opiniones vacías
ce = [14.736, 3.593, 9.041, 5.082, 11.407];

% Matriz de costos de mover de una opinión a otra
c = array2d(1..5, 1..5,
  [
    0.000,    3.387,    3.544,    2.307,    4.364,
    3.311,    0.000,    3.711,    4.986,    4.826,
    1.268,    4.013,    0.000,    2.958,    3.932,
    4.800,    2.986,    4.087,    0.000,    1.667,
    4.535,    2.507,    1.615,    4.926,    0.000
  ]);

% Costo total máximo permitido
ct = 75.430;

% Número máximo de movimientos permitidos
maxM = 39;
